p td 22 96
3 1
3 2
4 1
5 3
5 2
5 4
6 3
6 5
6 1
7 1
7 3
7 6
8 3
8 2
9 1
9 2
9 4
10 5
10 6
10 8
10 2
11 4
11 6
11 3
11 1
11 8
12 8
12 7
12 9
12 2
13 1
13 12
13 2
13 8
13 3
13 11
14 8
14 4
14 2
14 3
15 5
15 2
15 9
15 8
15 3
15 10
15 12
16 2
16 13
16 1
16 14
17 13
17 14
17 9
17 11
17 3
17 4
17 12
17 2
17 5
18 11
18 6
18 8
18 14
18 1
19 10
19 12
19 13
19 3
19 7
19 17
19 5
19 6
20 11
20 9
20 8
20 19
20 13
20 15
20 17
21 11
21 4
21 16
21 5
21 19
22 11
22 2
22 16
22 3
22 19
22 13
22 21
22 8
22 5
22 14
22 7
